sat
( (r_init 0)
  (_NONDET__init (- 1))
  (i_init 3)
  (j_init 0)
  (c_0 (- 3))
  (c_1 0)
  (c_2 (- 1))
  (c_3 3)
  (c_4 0)
  (c_5 (- 1))
  (c_6 2)
  (c_7 1)
  (c_8 (- 1))
  (c_9 0)
  (c_10 (- 2))
  (c_11 (- 2))
  (c_12 0)
  (c_13 0)
  (c_14 0) )
